jobs 122 
horizon 656 
PRECEDENCE:
1    
2    1
3    1
4    1
5    3
6    4
7    6
8    4
9    8
10    6
11    5
12    2
13    8
14    3
15    6
16    2
17    11
18    17
19    3 7
20    12
21    19
22    17
23    21
24    21
25    10
26    19
27    13
28    19
29    13 22
30    4
31    21
32    28
33    30
34    17
35    31
36    24
37    8
38    32
39    33
40    28
41    16
42    38
43    20
44    15
45    28
46    36 43
47    45
48    9
49    2
50    24
51    50
52    20
53    18
54    9
55    16
56    35
57    46
58    27
59    39
60    36
61    20
62    11
63    26 40
64    10 50
65    24
66    10
67    34 65
68    30
69    61
70    66
71    35
72    25 64
73    14
74    11 60
75    35
76    38
77    9 62 76
78    13 73
79    57 71
80    14 49
81    58
82    49
83    47
84    15
85    51
86    64 83
87    7 33
88    86
89    41
90    15
91    53 75 81
92    63 67 90
93    56 64 78
94    14 81
95    23 55 88
96    68 87
97    54 74 80
98    59 84
99    51
100    95
101    12 26 82
102    94
103    70 72 99
104    27 103
105    26
106    18 85 100
107    79 93 106
108    82
109    48 91 107
110    44 52 76
111    97 101
112    89 96 98
113    37 104 112
114    95 102 105
115    29 69 77
116    45 111 113
117    42 110 114
118    18 92
119    36 118
120    109 116 117
121    79 108 115
122    119 120 121
RESOURCEAVAILABILITY 26
REQUESTS/DURATIONS: 
 1 0 0 
 2 6 0 
 3 7 6 
 4 10 1 
 5 1 0 
 6 4 0 
 7 2 0 
 8 3 0 
 9 3 0 
 10 10 8 
 11 4 10 
 12 9 0 
 13 2 1 
 14 8 0 
 15 4 0 
 16 1 7 
 17 3 2 
 18 10 0 
 19 3 0 
 20 8 1 
 21 3 0 
 22 7 0 
 23 4 0 
 24 9 0 
 25 3 9 
 26 2 2 
 27 5 1 
 28 1 0 
 29 7 0 
 30 8 0 
 31 4 0 
 32 6 0 
 33 10 0 
 34 1 0 
 35 8 0 
 36 4 0 
 37 5 4 
 38 10 0 
 39 3 0 
 40 10 0 
 41 10 0 
 42 1 10 
 43 3 0 
 44 3 0 
 45 2 0 
 46 6 0 
 47 4 0 
 48 8 0 
 49 7 0 
 50 6 0 
 51 5 0 
 52 6 0 
 53 5 0 
 54 1 9 
 55 6 0 
 56 1 0 
 57 9 10 
 58 9 0 
 59 10 0 
 60 2 0 
 61 6 2 
 62 2 7 
 63 10 3 
 64 5 7 
 65 1 0 
 66 2 0 
 67 8 0 
 68 1 0 
 69 4 0 
 70 9 0 
 71 4 0 
 72 8 0 
 73 4 0 
 74 3 0 
 75 9 9 
 76 8 0 
 77 6 0 
 78 8 8 
 79 1 0 
 80 8 0 
 81 10 0 
 82 4 0 
 83 7 0 
 84 2 3 
 85 2 0 
 86 1 0 
 87 7 0 
 88 8 7 
 89 6 0 
 90 2 0 
 91 8 0 
 92 5 10 
 93 6 0 
 94 9 0 
 95 6 0 
 96 2 0 
 97 1 0 
 98 1 5 
 99 6 0 
100 6 5 
101 10 2 
102 4 0 
103 3 10 
104 10 0 
105 9 0 
106 10 4 
107 2 0 
108 6 0 
109 9 0 
110 5 1 
111 5 0 
112 4 0 
113 10 0 
114 9 1 
115 10 0 
116 4 0 
117 3 0 
118 3 0 
119 6 4 
120 8 0 
121 8 0 
122 0 0 
